p cnf 64 177
c t mc
-3 1 0
-3 2 0
-1 -2 3 0
-3 -4 -5 0
3 4 -5 0
-3 4 5 0
3 -4 5 0
-9 7 0
-9 -8 0
-7 8 9 0
9 7 -10 0
-9 -7 -10 0
9 -7 10 0
-9 7 10 0
-11 -10 0
-11 -10 0
10 11 0
-12 6 0
-12 11 0
-6 -11 12 0
-5 -12 -13 0
5 12 -13 0
-5 12 13 0
5 -12 13 0
14 1 -15 0
-14 -1 -15 0
14 -1 15 0
-14 1 15 0
-13 -15 -16 0
13 15 -16 0
-13 15 16 0
13 -15 16 0
-18 -17 0
-18 -1 0
17 1 18 0
-19 -18 0
-19 -14 0
18 14 19 0
-20 16 0
-20 -19 0
-16 19 20 0
-23 -21 0
-23 -22 0
21 22 23 0
7 -14 -24 0
-7 14 -24 0
7 14 24 0
-7 -14 24 0
27 -25 0
27 26 0
25 -26 -27 0
-1 -27 -28 0
1 27 -28 0
-1 27 28 0
1 -27 28 0
29 -24 0
29 28 0
24 -28 -29 0
-23 -29 -30 0
23 29 -30 0
-23 29 30 0
23 -29 30 0
-32 2 0
-32 31 0
-2 -31 32 0
34 33 0
34 -4 0
-33 4 -34 0
35 34 0
35 9 0
-34 -9 -35 0
-37 36 0
-37 -1 0
-36 1 37 0
-37 -11 -38 0
37 11 -38 0
-37 11 38 0
37 -11 38 0
-39 35 0
-39 38 0
-35 -38 39 0
-40 32 0
-40 -39 0
-32 39 40 0
-41 -30 0
-41 40 0
30 -40 41 0
20 41 -42 0
-20 -41 -42 0
20 -41 42 0
-20 41 42 0
-9 43 -44 0
9 -43 -44 0
-9 -43 44 0
9 43 44 0
-45 42 0
-45 -44 0
-42 44 45 0
-46 17 0
-46 -14 0
-17 14 46 0
47 2 -48 0
-47 -2 -48 0
47 -2 48 0
-47 2 48 0
-46 -48 -49 0
46 48 -49 0
-46 48 49 0
46 -48 49 0
-50 22 0
-50 4 0
-22 -4 50 0
51 -18 0
51 18 0
50 -51 -52 0
-50 51 -52 0
50 51 52 0
-50 -51 52 0
53 49 0
53 -52 0
-49 52 -53 0
-14 -54 -55 0
14 54 -55 0
-14 54 55 0
14 -54 55 0
-56 -53 0
-56 55 0
53 -55 56 0
59 -57 0
59 58 0
57 -58 -59 0
60 -59 0
60 -21 0
59 21 -60 0
57 -26 -61 0
-57 26 -61 0
57 26 61 0
-57 -26 61 0
62 -60 0
62 61 0
60 -61 -62 0
-56 62 -63 0
56 -62 -63 0
-56 -62 63 0
56 62 63 0
-45 -63 -64 0
45 63 -64 0
-45 63 64 0
45 -63 64 0
-4 15 2 49 58 22 -16 -25 48 44 0
-6 -35 4 38 48 57 20 0
59 58 37 -8 0
11 -2 -12 23 56 0
-56 -13 -22 49 1 3 34 -10 0
22 -15 -18 -48 -36 0
63 57 -28 20 47 -9 0
26 -45 -39 0
-17 -39 0
-5 47 -48 30 0
41 -24 60 -13 23 35 -57 0
-62 46 -12 29 0
-41 48 -30 -46 37 -28 10 33 -18 3 0
-4 -60 -20 -24 -32 -59 0
55 -41 62 -28 2 -53 -33 0
23 63 33 -21 -10 -1 -19 0
-23 2 8 0
32 -28 0
54 -50 40 21 36 0
-13 -19 60 1 -40 0
-63 -8 2 35 -55 -15 -36 -42 5 0
-42 5 10 -32 0
-60 58 11 -24 -16 17 -21 -36 0
15 40 19 -28 23 29 -18 -49 -14 -17 0
-54 27 20 28 -64 -60 -35 0
8 51 60 49 -21 19 55 -5 0
61 45 44 0
64 0
